NAME: ulysses16.tsp
TYPE: TSP
COMMENT: Odyssey of Ulysses (Groetschel/Padberg)
DIMENSION: 16
EDGE_WEIGHT_TYPE: GEO
DISPLAY_DATA_TYPE: COORD_DISPLAY
NODE_COORD_SECTION
 1 38 20
 2 39 26
 3 40 25
 4 36 23
 5 33 10
 6 37 12
 7 38 13
 8 37 20
 9 41 9
 10 41 13
 11 36 5
 12 38 15
 13 38 15
 14 37 15
 15 35 14
 16 39 19
 EOF

